NAME: generated_10_sym_1_20_UniformDistrib_noSparse.tsp
TYPE: TSP
COMMENT: Test case generated with custom generator!
DIMENSION: 10
EDGE_WEIGHT_TYPE: EXPLICIT
EDGE_WEIGHT_FORMAT: FULL_MATRIX
DISPLAY_DATA_TYPE: TWOD_DISPLAY
EDGE_WEIGHT_SECTION
0 3 16 5 5 18 20 5 2 12 
3 0 13 2 1 17 19 12 19 12 
16 13 0 3 17 1 13 5 3 17 
5 2 3 0 2 13 11 4 12 7 
5 1 17 2 0 4 10 7 8 20 
18 17 1 13 4 0 13 13 19 10 
20 19 13 11 10 13 0 2 4 8 
5 12 5 4 7 13 2 0 18 7 
2 19 3 12 8 19 4 18 0 15 
12 12 17 7 20 10 8 7 15 0 
